1611, 0, 0, 93, 3
1612, 0, 1, 39, 2
1613, 0, 2, 52, 1
1614, 0, 3, 76, 0
1615, 1, 0, 39, 0
1616, 1, 1, 79, 3
1617, 1, 2, 66, 1
1618, 1, 3, 31, 2
1619, 2, 0, 71, 2
1620, 2, 1, 49, 3
1621, 2, 2, 94, 0
1622, 2, 3, 76, 1
1623, 3, 0, 65, 2
1624, 3, 1, 38, 1
1625, 3, 2, 85, 0
1626, 3, 3, 68, 3
